4474 3187 1 2 4 5 7 9 15 17 18 20 21 23 24 25 26 27 28 29 30 31 34 35 36 37 38 39 40 41 42 43 44 46 47 49 50 51 52 53 54 55 58 59 60 62 63 64 65 66 67 69 70 71 73 74 75 76 77 80 81 82 84 86 87 88 89 90 92 93 94 95 96 97 98 100 